peakDumbCharging = 25900; 
Machine = anon_enum(16); 
machineSpeed = [3700,3700,3700,3700,3700,3700,3700,3700,3700,3700,3700,3700,3700,3700,3700,3700]; 
machineLoad = [3700,3700,3700,3700,3700,3700,3700,3700,3700,3700,3700,3700,3700,3700,3700,3700]; 
Car = anon_enum(32); 
demandCar = [11520,7000,2480,3480,16360,8760,2320,9800,3040,3160,5160,6520,8240,5720,4840,2600,12040,2680,32280,3680,1720,1000,19680,8720,5240,10720,9320,6240,2040,3600,17640,11680]; 
arrivalCar = [68,60,58,56,54,52,51,50,50,50,47,46,45,43,43,42,42,42,40,39,38,38,38,38,36,36,33,33,32,32,27,27]; 
departureCar = [73,63,61,59,60,58,54,54,53,53,53,49,48,49,46,45,49,45,60,42,40,40,45,42,39,41,37,37,34,34,38,32]; 
